
#(C) 2017 by FIZ Karlsruhe - Leibniz Institute for Information Infrastructure.  All rights reserved.
data_75587-ICSD
_database_code_ICSD 75587
_audit_creation_date 1996-04-22
_chemical_name_systematic 'Tristrontium diiridium(IV) heptaoxide'
_chemical_formula_structural 'Sr3 Ir2 O7'
_chemical_formula_sum 'Ir2 O7 Sr3'
_exptl_crystal_density_diffrn 7.98
_publ_section_title

;
Single crystal structure determination of double layered strontium iridium
oxide (Sr3 Ir2 O7)
;
loop_
_citation_id
_citation_journal_full
_citation_year
_citation_journal_volume
_citation_page_first
_citation_page_last
_citation_journal_id_ASTM
primary 'Materials Research Bulletin' 1994 29 645 650 MRBUAC
loop_
_publ_author_name
'Subramanian, M.A.'
'Crawford, M.K.'
'Harlow, R.L.'
_cell_length_a 3.896(1)
_cell_length_b 3.896(1)
_cell_length_c 20.879(3)
_cell_angle_alpha 90.
_cell_angle_beta 90.
_cell_angle_gamma 90.
_cell_volume 316.92
_cell_formula_units_Z 2
_symmetry_space_group_name_H-M 'I 4/m m m'
_symmetry_Int_Tables_number 139
_refine_ls_R_factor_all 0.014
loop_
_symmetry_equiv_pos_site_id
_symmetry_equiv_pos_as_xyz
1 'y, x, -z'
2 '-y, -x, -z'
3 '-y, x, -z'
4 'y, -x, -z'
5 '-x, y, -z'
6 'x, -y, -z'
7 'x, y, -z'
8 '-x, -y, -z'
9 '-y, -x, z'
10 'y, x, z'
11 'y, -x, z'
12 '-y, x, z'
13 'x, -y, z'
14 '-x, y, z'
15 '-x, -y, z'
16 'x, y, z'
17 'y+1/2, x+1/2, -z+1/2'
18 '-y+1/2, -x+1/2, -z+1/2'
19 '-y+1/2, x+1/2, -z+1/2'
20 'y+1/2, -x+1/2, -z+1/2'
21 '-x+1/2, y+1/2, -z+1/2'
22 'x+1/2, -y+1/2, -z+1/2'
23 'x+1/2, y+1/2, -z+1/2'
24 '-x+1/2, -y+1/2, -z+1/2'
25 '-y+1/2, -x+1/2, z+1/2'
26 'y+1/2, x+1/2, z+1/2'
27 'y+1/2, -x+1/2, z+1/2'
28 '-y+1/2, x+1/2, z+1/2'
29 'x+1/2, -y+1/2, z+1/2'
30 '-x+1/2, y+1/2, z+1/2'
31 '-x+1/2, -y+1/2, z+1/2'
32 'x+1/2, y+1/2, z+1/2'
loop_
_atom_type_symbol
_atom_type_oxidation_number
Ir4+ 4
Sr2+ 2
O2- -2
loop_
_atom_site_label
_atom_site_type_symbol
_atom_site_symmetry_multiplicity
_atom_site_Wyckoff_symbol
_atom_site_fract_x
_atom_site_fract_y
_atom_site_fract_z
_atom_site_B_iso_or_equiv
_atom_site_occupancy
_atom_site_attached_hydrogens
Ir1 Ir4+ 4 e 0 0 0.09743(3) . 1. 0
Sr1 Sr2+ 2 b 0.5 0.5 0 . 1. 0
Sr2 Sr2+ 4 e 0.5 0.5 0.1872(1) . 1. 0
O1 O2- 2 a 0 0 0 1.4(2) 1. 0
O2 O2- 4 e 0 0 0.1939(4) 0.5(1) 1. 0
O3 O2- 16 n 0.1043(19) 0.5 0.0960(3) 0.8(1) 0.5 0
loop_
_atom_site_aniso_label
_atom_site_aniso_type_symbol
_atom_site_aniso_U_11
_atom_site_aniso_U_22
_atom_site_aniso_U_33
_atom_site_aniso_U_12
_atom_site_aniso_U_13
_atom_site_aniso_U_23
Ir1 Ir4+ 0.0034(2) 0.0034(2) 0.0032(2) 0 0 0
Sr1 Sr2+ 0.0084(4) 0.0084(4) 0.0077(8) 0 0 0
Sr2 Sr2+ 0.0098(3) 0.0098(3) 0.0057(5) 0 0 0
#End of TTdata_75587-ICSD