
#(C) 2014 by Fachinformationszentrum Karlsruhe.  All rights reserved.
data_60652-ICSD
_database_code_ICSD 60652
_audit_creation_date 1987-03-16
_audit_update_record 1996-04-22
_chemical_name_systematic 'Dicopper oxide selenate(IV) - cubic'
_chemical_formula_structural 'Cu2 O (Se O3)'
_chemical_formula_sum 'Cu2 O4 Se1'
_exptl_crystal_density_diffrn 5.05
_publ_section_title

;
Die Kristallstrukturen der Kupfer(II)-oxo-selenite Cu2 O (Se O3) (kubisch und
monoklin) und Cu4 O (Se O3)3 (monoklin und triklin)
;
loop_
_citation_id
_citation_journal_full
_citation_year
_citation_journal_volume
_citation_page_first
_citation_page_last
_citation_journal_id_ASTM
primary 'Monatshefte fuer Chemie' 1986 117 887 896 MOCMB7
loop_
_publ_author_name
'Effenberger, H.'
'Pertlik, F.'
_cell_length_a 8.925(1)
_cell_length_b 8.925(1)
_cell_length_c 8.925(1)
_cell_angle_alpha 90.
_cell_angle_beta 90.
_cell_angle_gamma 90.
_cell_volume 710.93
_cell_formula_units_Z 8
_symmetry_space_group_name_H-M 'P 21 3'
_symmetry_Int_Tables_number 198
_refine_ls_R_factor_all 0.028
loop_
_symmetry_equiv_pos_site_id
_symmetry_equiv_pos_as_xyz
1 '-z+1/2, -x, y+1/2'
2 '-y+1/2, -z, x+1/2'
3 '-x+1/2, -y, z+1/2'
4 '-z, x+1/2, -y+1/2'
5 '-y, z+1/2, -x+1/2'
6 '-x, y+1/2, -z+1/2'
7 'z+1/2, -x+1/2, -y'
8 'y+1/2, -z+1/2, -x'
9 'x+1/2, -y+1/2, -z'
10 'z, x, y'
11 'y, z, x'
12 'x, y, z'
loop_
_atom_type_symbol
_atom_type_oxidation_number
Cu2+ 2
O2- -2
Se4+ 4
O2- -2
Se4+ 4
O2- -2
loop_
_atom_site_label
_atom_site_type_symbol
_atom_site_symmetry_multiplicity
_atom_site_Wyckoff_symbol
_atom_site_fract_x
_atom_site_fract_y
_atom_site_fract_z
_atom_site_B_iso_or_equiv
_atom_site_occupancy
_atom_site_attached_hydrogens
Cu1 Cu2+ 4 a 0.8860(1) 0.8860(1) 0.8860(1) . 1. 0
Cu2 Cu2+ 12 b 0.1335(1) 0.1211(1) -.1281(1) . 1. 0
O1 O2- 4 a 0.0105(5) 0.0105(5) 0.0105(5) . 1. 0
O2 O2- 4 a 0.7621(5) 0.7621(5) 0.7621(5) . 1. 0
Se1 Se4+ 4 a 0.4590(1) 0.4590(1) 0.4590(1) . 1. 0
O3 O2- 12 b 0.2699(5) 0.4834(5) 0.4706(6) . 1. 0
Se2 Se4+ 4 a 0.2113(1) 0.2113(1) 0.2113(1) . 1. 0
O4 O2- 12 b 0.2710(5) 0.1892(5) 0.0313(5) . 1. 0
loop_
_atom_site_aniso_label
_atom_site_aniso_type_symbol
_atom_site_aniso_U_11
_atom_site_aniso_U_22
_atom_site_aniso_U_33
_atom_site_aniso_U_12
_atom_site_aniso_U_13
_atom_site_aniso_U_23
Cu1 Cu2+ 0.0104(2) 0.0104(2) 0.0104(2) -.0015(3) -.0015(3) -.0015(3)
Cu2 Cu2+ 0.0084(3) 0.0089(3) 0.0077(3) -.0016(3) 0.0004(2) 0.0009(3)
O1 O2- 0.008(2) 0.008(2) 0.008(2) -.001(1) -.001(1) -.001(1)
O2 O2- 0.008(2) 0.008(2) 0.008(2) 0.000(1) 0.000(1) 0.000(1)
Se1 Se4+ 0.0089(2) 0.0089(2) 0.0089(2) 0.0007(2) 0.0007(2) 0.0007(2)
O3 O2- 0.006(2) 0.018(2) 0.025(3) 0.007(2) 0.005(2) 0.009(2)
Se2 Se4+ 0.0078(2) 0.0078(2) 0.0078(2) -.0007(2) -.0007(2) -.0007(2)
O4 O2- 0.006(2) 0.021(2) 0.008(2) -.002(2) 0.001(2) 0.001(2)
#End of TTdata_60652-ICSD