
#(C) 2017 by FIZ Karlsruhe - Leibniz Institute for Information Infrastructure.  All rights reserved.
data_187813-ICSD
_database_code_ICSD 187813
_audit_creation_date 2013-08-01
_chemical_name_systematic 'Strontium iridate'
_chemical_formula_structural 'Sr (Ir O3)'
_chemical_formula_sum 'Ir1 O3 Sr1'
_chemical_name_structure_type SrIrO3
_exptl_crystal_density_diffrn 8.58
_cell_measurement_temperature 293.
_publ_section_title
'Synthesis, structures and properties of transition metal doped Sr Ir O3'
loop_
_citation_id
_citation_journal_full
_citation_year
_citation_journal_volume
_citation_page_first
_citation_page_last
_citation_journal_id_ASTM
primary 'Journal of Materials Chemistry A' 2013 1 3127 3132 JMCAET
loop_
_publ_author_name
'Qasim, Ilyas'
'Kennedy, Brendan J.'
'Avdeev, Maxim'
_cell_length_a 5.60401(29)
_cell_length_b 9.6256(4)
_cell_length_c 14.1834(7)
_cell_angle_alpha 90.
_cell_angle_beta 93.202(4)
_cell_angle_gamma 90.
_cell_volume 763.89
_cell_formula_units_Z 12
_symmetry_space_group_name_H-M 'C 1 2/c 1'
_symmetry_Int_Tables_number 15
loop_
_symmetry_equiv_pos_site_id
_symmetry_equiv_pos_as_xyz
1 'x, -y, z+1/2'
2 '-x, -y, -z'
3 '-x, y, -z+1/2'
4 'x, y, z'
5 'x+1/2, -y+1/2, z+1/2'
6 '-x+1/2, -y+1/2, -z'
7 '-x+1/2, y+1/2, -z+1/2'
8 'x+1/2, y+1/2, z'
loop_
_atom_type_symbol
_atom_type_oxidation_number
Sr2+ 2
Ir4+ 4
O2- -2
loop_
_atom_site_label
_atom_site_type_symbol
_atom_site_symmetry_multiplicity
_atom_site_Wyckoff_symbol
_atom_site_fract_x
_atom_site_fract_y
_atom_site_fract_z
_atom_site_B_iso_or_equiv
_atom_site_occupancy
_atom_site_attached_hydrogens
Sr1 Sr2+ 4 e 0 0.0092(10) 0.25 0.0285(22) 1. 0
Sr2 Sr2+ 8 f 0.0122(10) 0.6667(8) 0.0957(4) 0.0482(20) 1. 0
Ir1 Ir4+ 4 a 0 0 0 0.0478(20) 1. 0
Ir2 Ir4+ 8 f 0.9820(8) 0.6660(5) 0.84698(29) 0.0459(14) 1. 0
O1 O2- 4 e 0 0.4981(13) 0.25 0.0584(39) 1. 0
O2 O2- 8 f 0.2411(14) 0.2649(7) 0.2630(5) 0.0287(19) 1. 0
O3 O2- 8 f 0.8112(13) 0.4077(8) 0.0474(5) 0.0572(24) 1. 0
O4 O2- 8 f 0.9407(13) 0.1344(9) 0.4087(5) 0.0535(29) 1. 0
O5 O2- 8 f 0.3238(18) 0.4204(8) 0.1058(6) 0.0586(23) 1. 0
#End of TTdata_187813-ICSD