
#(C) 2017 by FIZ Karlsruhe - Leibniz Institute for Information Infrastructure.  All rights reserved.
data_39359-ICSD
_database_code_ICSD 39359
_audit_creation_date 1991-07-10
_chemical_name_systematic 'Yttrium barium copper oxide (1/2/3/6.9)'
_chemical_formula_structural 'Y Ba2 Cu3 O6.9'
_chemical_formula_sum 'Ba2 Cu3 O6.9 Y1'
_chemical_name_structure_type YBa2Cu3O6+x(orh)
_exptl_crystal_density_diffrn 6.37
_publ_section_title 'Neutron diffraction study of HTSC ceramics YBa2Cu3O6.9'
loop_
_citation_id
_citation_journal_full
_citation_year
_citation_journal_volume
_citation_page_first
_citation_page_last
_citation_journal_id_ASTM
primary Kristallografiya 1991 36 217 218 KRISAJ
loop_
_publ_author_name
'Nozik, Yu.Z.'
'Kuklina, E.S.'
'Schuster, G.'
'Weiss, L.'
'Matz, W.'
_cell_length_a 3.8210(2)
_cell_length_b 3.8826(3)
_cell_length_c 11.6720(8)
_cell_angle_alpha 90.
_cell_angle_beta 90.
_cell_angle_gamma 90.
_cell_volume 173.16
_cell_formula_units_Z 1
_symmetry_space_group_name_H-M 'P m m m'
_symmetry_Int_Tables_number 47
_refine_ls_R_factor_all 0.044
loop_
_symmetry_equiv_pos_site_id
_symmetry_equiv_pos_as_xyz
1 'x, -y, z'
2 '-x, y, z'
3 'x, y, -z'
4 '-x, -y, -z'
5 '-x, y, -z'
6 'x, -y, -z'
7 '-x, -y, z'
8 'x, y, z'
loop_
_atom_type_symbol
_atom_type_oxidation_number
Y3+ 3
Ba2+ 2
Cu2+ 2.8
Cu2+ 2
O2- -2
loop_
_atom_site_label
_atom_site_type_symbol
_atom_site_symmetry_multiplicity
_atom_site_Wyckoff_symbol
_atom_site_fract_x
_atom_site_fract_y
_atom_site_fract_z
_atom_site_B_iso_or_equiv
_atom_site_occupancy
_atom_site_attached_hydrogens
Y1 Y3+ 1 h 0.5 0.5 0.5 0.29(8) 1. 0
Ba1 Ba2+ 2 t 0.5 0.5 0.1851(4) 0.66(9) 1. 0
Cu1 Cu2+ 1 a 0 0 0 1.0(1) 1. 0
Cu2 Cu2+ 2 q 0 0 0.3557(2) 0.51(6) 1. 0
O1 O2- 2 q 0 0 0.1600(4) 0.6(1) 1. 0
O2 O2- 2 s 0.5 0 0.3776(5) 0.8(1) 1. 0
O3 O2- 2 r 0 0.5 0.3778(5) 0.9(1) 1. 0
O4 O2- 1 e 0 0.5 0 1.5(2) 0.9 0
#End of TTdata_39359-ICSD